15
1 0 8
2 0 8
2 1 6
3 0 7
3 1 7
3 2 4
4 0 2
4 1 1
4 2 6
4 3 7
5 0 3
5 1 1
5 2 9
5 3 4
5 4 5
6 0 4
6 1 7
6 2 2
6 3 8
6 4 7
6 5 1
7 0 9
7 1 5
7 2 5
7 3 8
7 4 9
7 5 8
7 6 6
8 0 3
8 1 1
8 2 5
8 3 5
8 4 7
8 5 8
8 6 8
8 7 2
9 0 7
9 1 2
9 2 8
9 3 3
9 4 1
9 5 5
9 6 8
9 7 5
9 8 4
10 0 7
10 1 3
10 2 6
10 3 7
10 4 4
10 5 7
10 6 7
10 7 2
10 8 4
10 9 7
11 0 1
11 1 1
11 2 6
11 3 1
11 4 3
11 5 8
11 6 8
11 7 9
11 8 3
11 9 3
11 10 4
12 0 7
12 1 7
12 2 4
12 3 5
12 4 9
12 5 1
12 6 5
12 7 2
12 8 7
12 9 9
12 10 4
12 11 8
13 0 3
13 1 4
13 2 9
13 3 8
13 4 8
13 5 6
13 6 1
13 7 2
13 8 4
13 9 1
13 10 3
13 11 3
13 12 3
14 0 5
14 1 6
14 2 5
14 3 3
14 4 2
14 5 3
14 6 5
14 7 3
14 8 4
14 9 8
14 10 6
14 11 1
14 12 8
14 13 3
